100
16 4
23 0
24 1
26 3
33 1
17 4
3 3
22 4
16 2
23 1
12 3
39 3
39 2
9 3
40 4
40 0
12 4
4 4
5 4
5 3
41 0
15 0
19 3
35 4
35 2
23 4
9 2
28 3
7 0
7 4
38 0
8 0
3 4
9 0
40 1
33 4
0 4
25 3
31 1
10 4
10 2
0 1
25 1
21 4
17 0
19 1
13 4
34 4
41 4
27 0
38 1
35 0
14 3
18 4
1 4
6 3
22 3
19 0
38 2
24 2
21 3
27 3
14 4
40 3
26 1
18 0
8 4
6 0
16 0
25 0
24 3
27 4
14 0
39 4
22 0
11 4
2 4
34 0
1 1
20 4
15 1
13 1
12 0
9 1
36 0
10 0
28 1
25 4
31 2
7 3
36 4
31 0
29 4
0 0
42 4
36 3
28 0
42 0
32 3
3 0

